(set-logic QF_S)
(declare-fun var0 () String)
(declare-fun var1 () Int)
(declare-fun var2 () String)
(declare-fun var3 () String)
(declare-fun var4 () String)
(declare-fun var5 () Int)
(assert (str.in.re (str.at var0 var1) (re.+ re.allchar)))
(assert (< (str.len var2) (str.to.int var3)))
(assert (str.suffixof var4 var2))
(assert (> (str.len var2) (str.indexof var3 var0 var5)))
(check-sat)